\ENCODING=ISO-8859-1
\Problem name: IloCplex

Minimize
 obj1: x1
Subject To
 c1:  x2 + x3 + x4 + x5 + x6 + x7  = 1
 c2:  x8 + x9 + x10 + x11 + x12 + x13  = 1
 c3:  x14 + x15 + x16 + x17 + x18 + x19  = 1
 c4:  x20 + x21 + x22 + x23 + x24 + x25  = 1
 c5:  x26 + x27 + x28 + x29 + x30 + x31  = 1
 c6:  x32 + x33 + x34 + x35 + x36 + x37  = 1
 c7:  x2 - x38 <= 0
 c8:  x3 - x39 <= 0
 c9:  x4 - x40 <= 0
 c10: x5 - x41 <= 0
 c11: x6 - x42 <= 0
 c12: x7 - x43 <= 0
 c13: x8 - x38 <= 0
 c14: x9 - x39 <= 0
 c15: x10 - x40 <= 0
 c16: x11 - x41 <= 0
 c17: x12 - x42 <= 0
 c18: x13 - x43 <= 0
 c19: x14 - x38 <= 0
 c20: x15 - x39 <= 0
 c21: x16 - x40 <= 0
 c22: x17 - x41 <= 0
 c23: x18 - x42 <= 0
 c24: x19 - x43 <= 0
 c25: x20 - x38 <= 0
 c26: x21 - x39 <= 0
 c27: x22 - x40 <= 0
 c28: x23 - x41 <= 0
 c29: x24 - x42 <= 0
 c30: x25 - x43 <= 0
 c31: x26 - x38 <= 0
 c32: x27 - x39 <= 0
 c33: x28 - x40 <= 0
 c34: x29 - x41 <= 0
 c35: x30 - x42 <= 0
 c36: x31 - x43 <= 0
 c37: x32 - x38 <= 0
 c38: x33 - x39 <= 0
 c39: x34 - x40 <= 0
 c40: x35 - x41 <= 0
 c41: x36 - x42 <= 0
 c42: x37 - x43 <= 0
 c43: - x1 + 135 x2 + 186 x3 + 612 x4 + 232 x5 + 387 x6 + 107 x7 + 78 x8
      + 33 x9 + 462 x10 + 168 x11 + 853 x12 + 56 x13 + 488 x14 + 160 x15
      + 376 x16 + 900 x17 + 565 x18 + 309 x19 + 152 x20 + 435 x21 + 557 x22
      + 304 x23 + 137 x24 + 101 x25 + 80 x26 + 300 x27 + 453 x28 + 565 x29
      + 372 x30 + 778 x31 + 693 x32 + 135 x33 + 549 x34 + 79 x35 + 398 x36
      + 153 x37 + 20 x38 + 69 x39 + 53 x40 + 39 x41 + 39 x42 + 82 x43
      <= 2861.35420307024
 c44: - x1 + 323 x2 + 527 x3 + 563 x4 + 269 x5 + 232 x6 + 410 x7 + 827 x8
      + 550 x9 + 61 x10 + 300 x11 + 601 x12 + 471 x13 + 170 x14 + 320 x15
      + 883 x16 + 67 x17 + 237 x18 + 175 x19 + 774 x20 + 98 x21 + 56 x22
      + 294 x23 + 575 x24 + 733 x25 + 814 x26 + 384 x27 + 114 x28 + 380 x29
      + 111 x30 + 690 x31 + 347 x32 + 442 x33 + 826 x34 + 486 x35 + 253 x36
      + 308 x37 + 25 x38 + 56 x39 + 67 x40 + 10 x41 + 67 x42 + 21 x43 <= 14919
 c45: - x1 + 779 x2 + 311 x3 + 38 x4 + 503 x5 + 349 x6 + 928 x7 + 429 x8
      + 670 x9 + 800 x10 + 612 x11 + 23 x12 + 786 x13 + 356 x14 + 582 x15
      + 115 x16 + 481 x17 + 236 x18 + 562 x19 + 300 x20 + 940 x21 + 545 x22
      + 357 x23 + 357 x24 + 377 x25 + 421 x26 + 277 x27 + 489 x28 + 126 x29
      + 654 x30 + 4 x31 + 121 x32 + 454 x33 + 32 x34 + 548 x35 + 315 x36
      + 655 x37 + 81 x38 + 3 x39 + 5 x40 + 77 x41 + 11 x42 + 25 x43 <= 1944
 c46: 135 x2 + 186 x3 + 612 x4 + 232 x5 + 387 x6 + 107 x7 + 78 x8 + 33 x9
      + 462 x10 + 168 x11 + 853 x12 + 56 x13 + 488 x14 + 160 x15 + 376 x16
      + 900 x17 + 565 x18 + 309 x19 + 152 x20 + 435 x21 + 557 x22 + 304 x23
      + 137 x24 + 101 x25 + 80 x26 + 300 x27 + 453 x28 + 565 x29 + 372 x30
      + 778 x31 + 693 x32 + 135 x33 + 549 x34 + 79 x35 + 398 x36 + 153 x37
      + 20 x38 + 69 x39 + 53 x40 + 39 x41 + 39 x42 + 82 x43 <= 2884
 c47: 323 x2 + 527 x3 + 563 x4 + 269 x5 + 232 x6 + 410 x7 + 827 x8 + 550 x9
      + 61 x10 + 300 x11 + 601 x12 + 471 x13 + 170 x14 + 320 x15 + 883 x16
      + 67 x17 + 237 x18 + 175 x19 + 774 x20 + 98 x21 + 56 x22 + 294 x23
      + 575 x24 + 733 x25 + 814 x26 + 384 x27 + 114 x28 + 380 x29 + 111 x30
      + 690 x31 + 347 x32 + 442 x33 + 826 x34 + 486 x35 + 253 x36 + 308 x37
      + 25 x38 + 56 x39 + 67 x40 + 10 x41 + 67 x42 + 21 x43 <= 2170
 c48: 779 x2 + 311 x3 + 38 x4 + 503 x5 + 349 x6 + 928 x7 + 429 x8 + 670 x9
      + 800 x10 + 612 x11 + 23 x12 + 786 x13 + 356 x14 + 582 x15 + 115 x16
      + 481 x17 + 236 x18 + 562 x19 + 300 x20 + 940 x21 + 545 x22 + 357 x23
      + 357 x24 + 377 x25 + 421 x26 + 277 x27 + 489 x28 + 126 x29 + 654 x30
      + 4 x31 + 121 x32 + 454 x33 + 32 x34 + 548 x35 + 315 x36 + 655 x37
      + 81 x38 + 3 x39 + 5 x40 + 77 x41 + 11 x42 + 25 x43 <= 1944
Bounds
 0 <= x2 <= 1
 0 <= x3 <= 1
 0 <= x4 <= 1
      x5 = 1
 0 <= x6 <= 1
 0 <= x7 <= 1
      x8 = 0
      x9 = 0
 0 <= x10 <= 1
      x11 = 0
      x12 = 1
 0 <= x13 <= 1
      x14 = 0
 0 <= x15 <= 1
 0 <= x16 <= 1
 0 <= x17 <= 1
 0 <= x18 <= 1
 0 <= x19 <= 1
      x20 = 0
 0 <= x21 <= 1
 0 <= x22 <= 1
 0 <= x23 <= 1
 0 <= x24 <= 1
 0 <= x25 <= 1
 0 <= x26 <= 1
      x27 = 0
 0 <= x28 <= 1
      x29 = 1
      x30 = 0
 0 <= x31 <= 1
 0 <= x32 <= 1
 0 <= x33 <= 1
 0 <= x34 <= 1
 0 <= x35 <= 1
 0 <= x36 <= 1
      x37 = 0
 0 <= x38 <= 1
      x39 = 1
      x40 = 0
 0 <= x41 <= 1
 0 <= x42 <= 1
      x43 = 0
End
